language ESSENCE' 1.0

letting n_courses be 141
letting n_periods be 21
letting prerequisite_RelationAsSet_Explicit_1 be
        [1, 1, 1, 1, 1, 1, 2, 2, 3, 3, 4, 4, 4, 4, 5, 5, 6, 6, 6, 7, 7, 8, 8, 9, 10, 10, 10, 11, 11, 11, 11, 11, 11, 11,
         12, 13, 13, 13, 13, 14, 14, 14, 14, 15, 16, 16, 16, 16, 17, 17, 17, 17, 18, 18, 18, 18, 19, 19, 19, 19, 19, 19,
         20, 20, 20, 21, 21, 21, 22, 22, 23, 23, 23, 23, 23, 24, 24, 25, 25, 26, 27, 27, 28, 29, 29, 29, 29, 29, 30, 30,
         30, 30, 31, 31, 31, 32, 34, 34, 35, 35, 36, 37, 38, 39, 39, 40, 41, 41, 41, 42, 42, 43, 45, 47, 48, 49, 50, 52,
         52, 52, 54, 56, 56, 56, 56, 56, 56, 57, 57, 58, 59, 59, 59, 60, 61, 63, 64, 64, 65, 65, 66, 67, 67, 70, 71, 73,
         73, 73, 76, 76, 77, 79, 79, 80, 81, 84, 84, 85, 86, 86, 87, 88, 90, 91;
             int(1..164)]
letting prerequisite_RelationAsSet_Explicit_2 be
        [35, 43, 55, 66, 73, 91, 32, 77, 57, 66, 33, 43, 65, 91, 37, 42, 41, 56, 89, 31, 56, 47, 87, 73, 45, 54, 78, 38,
         49, 53, 58, 64, 69, 75, 47, 40, 47, 52, 68, 36, 46, 53, 61, 48, 47, 59, 71, 74, 51, 60, 74, 85, 31, 50, 62, 67,
         47, 50, 72, 73, 85, 90, 39, 59, 63, 42, 44, 76, 49, 67, 34, 35, 72, 80, 84, 32, 70, 81, 82, 88, 46, 59, 79, 43,
         45, 60, 70, 83, 42, 46, 68, 86, 102, 108, 126, 130, 92, 127, 117, 136, 94, 119, 95, 120, 139, 102, 95, 121,
         134, 103, 105, 112, 118, 96, 98, 122, 135, 98, 114, 129, 129, 105, 109, 120, 128, 132, 134, 113, 125, 93, 115,
         116, 124, 107, 99, 131, 104, 121, 105, 106, 135, 125, 141, 119, 138, 101, 110, 117, 103, 110, 137, 123, 133,
         93, 127, 97, 127, 133, 94, 140, 111, 125, 114, 100;
             int(1..164)]
letting course_load_Function1D be
        [3, 7, 6, 6, 8, 9, 3, 5, 6, 6, 4, 3, 9, 5, 4, 8, 9, 2, 9, 3, 6, 4, 7, 9, 6, 5, 6, 5, 8, 5, 3, 5, 6, 7, 5, 8, 5,
         4, 2, 6, 8, 4, 5, 5, 2, 5, 7, 2, 2, 2, 4, 7, 9, 7, 8, 9, 2, 9, 6, 6, 3, 7, 2, 5, 5, 4, 4, 4, 2, 2, 4, 3, 8, 4,
         8, 6, 8, 5, 5, 8, 8, 2, 4, 4, 7, 3, 3, 2, 3, 5, 6, 4, 4, 2, 7, 2, 4, 6, 5, 5, 3, 2, 6, 7, 6, 3, 6, 7, 7, 4, 7,
         7, 2, 3, 6, 6, 8, 4, 8, 5, 2, 4, 5, 7, 9, 7, 4, 4, 7, 3, 2, 3, 5, 8, 2, 6, 6, 6, 5, 2, 4;
             int(1..141)]
letting load_per_period_ub be 35
letting load_per_period_lb be 7
letting courses_per_period_ub be 9
letting courses_per_period_lb be 5
letting fin1 be 164
letting fin2 be 141
letting fin3 be 9
